4º Periodo/Pesquisa Operacional/ati1.mps
NAME ati1
OBJSENSE MAX
ROWS
 N  OBJ
 L  c0      
 L  c1      
 L  c2      
 E  c3      
 E  c4      
 G  c5      
COLUMNS
    liga1     OBJ       3000
    liga1     c3        -1
    liga1     c5        1
    liga2     OBJ       2000
    liga2     c4        -1
    liga2     c5        1
    cobre     c0        1
    cobre     c3        0.5
    cobre     c4        0.3
    zinco     c1        1
    zinco     c3        0.1
    zinco     c4        0.2
    chumbo    c2        1
    chumbo    c3        0.4
    chumbo    c4        0.5
RHS
    RHS1      c0        3
    RHS1      c1        1
    RHS1      c2        3
    RHS1      c5        1
BOUNDS
ENDATA
